
Gurobi 9.5.2 (win64, Python) logging started Sat Oct  8 13:09:18 2022

Set parameter LogFile to value "gurobi.log"

Gurobi 9.5.2 (win64, Python) logging started Sat Oct  8 13:10:39 2022

Set parameter Username
Set parameter LogFile to value "gurobi.log"
Academic license - for non-commercial use only - expires 2023-10-03

Gurobi 9.5.2 (win64, Python) logging started Sat Oct  8 13:59:10 2022

Set parameter Username
Set parameter LogFile to value "gurobi.log"
Academic license - for non-commercial use only - expires 2023-10-03
